105933.0
835
0 4 8 9 10 14 15 19 24 26 30 34 37 41 50 51 52 59 60 61 66 68 73 75 84 85 86 106 109 110 112 113 116 118 124 126 132 133 134 135 139 145 154 155 161 165 169 170 171 173 177 178 179 180 187 190 192 194 